p cep 216 3070
1 5
1 34
1 58
1 118
1 205
2 12
2 125
2 128
2 147
2 183
2 211
3 8
3 11
3 22
3 26
3 28
3 33
3 40
3 41
3 42
3 44
3 46
3 53
3 55
3 56
3 65
3 67
3 68
3 76
3 77
3 84
3 92
3 94
3 100
3 106
3 107
3 112
3 115
3 119
3 124
3 126
3 129
3 131
3 137
3 143
3 150
3 153
3 159
3 161
3 162
3 163
3 165
3 171
3 174
3 180
3 181
3 182
3 184
3 187
3 189
3 190
3 191
3 195
3 201
3 202
3 204
3 206
3 209
3 214
3 215
4 19
4 57
4 70
4 80
4 87
4 123
4 146
4 155
4 178
4 192
5 34
5 58
5 118
5 205
6 18
6 25
6 29
6 35
6 38
6 39
6 47
6 48
6 49
6 51
6 52
6 54
6 59
6 61
6 62
6 66
6 72
6 74
6 75
6 81
6 88
6 90
6 93
6 95
6 96
6 99
6 103
6 104
6 130
6 133
6 140
6 141
6 142
6 144
6 151
6 156
6 157
6 160
6 168
6 169
6 177
6 179
6 185
6 186
6 193
6 196
6 197
6 198
6 203
7 176
8 11
8 22
8 26
8 28
8 33
8 40
8 41
8 42
8 44
8 46
8 53
8 55
8 56
8 65
8 67
8 68
8 76
8 77
8 84
8 92
8 94
8 100
8 106
8 107
8 112
8 115
8 119
8 124
8 126
8 129
8 131
8 137
8 143
8 150
8 153
8 159
8 161
8 162
8 163
8 165
8 171
8 174
8 180
8 181
8 182
8 184
8 187
8 189
8 190
8 191
8 195
8 201
8 202
8 204
8 206
8 209
8 214
8 215
9 134
10 43
10 110
10 132
11 22
11 26
11 28
11 33
11 40
11 41
11 42
11 44
11 46
11 53
11 55
11 56
11 65
11 67
11 68
11 76
11 77
11 84
11 92
11 94
11 100
11 106
11 107
11 112
11 115
11 119
11 124
11 126
11 129
11 131
11 137
11 143
11 150
11 153
11 159
11 161
11 162
11 163
11 165
11 171
11 174
11 180
11 181
11 182
11 184
11 187
11 189
11 190
11 191
11 195
11 201
11 202
11 204
11 206
11 209
11 214
11 215
12 30
12 64
12 147
12 211
14 65
14 143
14 181
15 78
17 108
17 166
18 25
18 29
18 35
18 38
18 39
18 47
18 48
18 49
18 51
18 52
18 54
18 59
18 61
18 62
18 66
18 72
18 74
18 75
18 81
18 88
18 90
18 93
18 95
18 96
18 99
18 103
18 104
18 130
18 133
18 140
18 141
18 142
18 144
18 151
18 156
18 157
18 160
18 168
18 169
18 177
18 179
18 185
18 186
18 193
18 196
18 197
18 198
18 203
19 57
19 70
19 80
19 87
19 123
19 146
19 155
19 178
19 192
20 60
20 175
21 23
21 45
21 116
21 117
21 135
21 148
21 167
22 26
22 28
22 33
22 40
22 41
22 42
22 44
22 46
22 53
22 55
22 56
22 65
22 67
22 68
22 76
22 77
22 84
22 92
22 94
22 100
22 106
22 107
22 112
22 115
22 119
22 124
22 126
22 129
22 131
22 137
22 150
22 153
22 159
22 161
22 162
22 163
22 165
22 171
22 174
22 180
22 181
22 182
22 184
22 187
22 189
22 190
22 191
22 195
22 201
22 202
22 204
22 206
22 209
22 214
22 215
23 45
23 63
23 116
23 117
23 135
23 148
23 167
25 29
25 35
25 38
25 39
25 47
25 48
25 49
25 51
25 52
25 54
25 59
25 61
25 62
25 66
25 72
25 74
25 75
25 81
25 88
25 90
25 93
25 95
25 96
25 99
25 103
25 104
25 130
25 133
25 140
25 141
25 142
25 144
25 151
25 156
25 157
25 160
25 168
25 169
25 177
25 179
25 185
25 186
25 193
25 196
25 197
25 198
25 203
26 28
26 33
26 40
26 41
26 42
26 44
26 46
26 53
26 55
26 56
26 65
26 67
26 68
26 76
26 77
26 84
26 92
26 94
26 100
26 106
26 107
26 112
26 115
26 119
26 124
26 126
26 129
26 131
26 137
26 143
26 150
26 153
26 159
26 161
26 162
26 163
26 165
26 171
26 174
26 180
26 181
26 182
26 184
26 187
26 189
26 190
26 191
26 195
26 201
26 202
26 204
26 206
26 209
26 214
26 215
28 33
28 40
28 41
28 42
28 44
28 46
28 53
28 55
28 56
28 65
28 67
28 68
28 76
28 77
28 84
28 92
28 94
28 100
28 106
28 107
28 112
28 115
28 119
28 124
28 126
28 129
28 131
28 137
28 143
28 150
28 153
28 159
28 161
28 162
28 163
28 165
28 171
28 174
28 180
28 181
28 182
28 184
28 187
28 189
28 190
28 191
28 195
28 201
28 202
28 204
28 206
28 209
28 214
28 215
29 35
29 38
29 39
29 47
29 48
29 51
29 52
29 54
29 59
29 62
29 66
29 72
29 74
29 75
29 81
29 88
29 90
29 93
29 95
29 96
29 99
29 103
29 104
29 130
29 133
29 140
29 141
29 142
29 144
29 151
29 156
29 157
29 160
29 168
29 169
29 177
29 179
29 185
29 186
29 193
29 197
29 198
29 203
30 147
31 65
31 143
33 40
33 41
33 42
33 44
33 46
33 53
33 55
33 56
33 65
33 67
33 68
33 76
33 77
33 84
33 92
33 94
33 100
33 106
33 107
33 112
33 115
33 119
33 124
33 126
33 129
33 131
33 137
33 143
33 150
33 153
33 159
33 161
33 162
33 163
33 165
33 171
33 174
33 180
33 181
33 182
33 184
33 187
33 189
33 190
33 195
33 201
33 202
33 204
33 206
33 209
33 214
33 215
34 58
34 118
34 205
35 38
35 39
35 47
35 48
35 51
35 52
35 54
35 59
35 62
35 66
35 72
35 74
35 75
35 81
35 88
35 90
35 93
35 95
35 96
35 99
35 103
35 104
35 130
35 133
35 140
35 141
35 142
35 144
35 151
35 156
35 157
35 160
35 168
35 169
35 177
35 179
35 185
35 186
35 193
35 196
35 197
35 198
35 203
37 82
37 120
37 127
38 39
38 47
38 48
38 49
38 51
38 52
38 54
38 59
38 61
38 62
38 66
38 72
38 74
38 75
38 81
38 88
38 90
38 93
38 95
38 96
38 99
38 103
38 104
38 130
38 133
38 140
38 141
38 142
38 144
38 151
38 156
38 160
38 168
38 169
38 177
38 179
38 185
38 186
38 193
38 197
38 198
38 203
39 48
39 49
39 51
39 52
39 59
39 61
39 62
39 66
39 72
39 74
39 75
39 81
39 88
39 90
39 93
39 95
39 96
39 99
39 103
39 104
39 130
39 133
39 140
39 141
39 142
39 144
39 151
39 156
39 160
39 177
39 179
39 185
39 186
39 193
39 197
39 198
39 203
40 41
40 42
40 44
40 46
40 53
40 55
40 56
40 65
40 67
40 68
40 76
40 77
40 84
40 92
40 94
40 100
40 106
40 107
40 112
40 115
40 119
40 124
40 126
40 129
40 131
40 137
40 143
40 150
40 153
40 159
40 161
40 162
40 163
40 165
40 171
40 174
40 180
40 181
40 182
40 184
40 187
40 189
40 190
40 195
40 201
40 202
40 204
40 206
40 209
40 214
40 215
41 42
41 44
41 46
41 53
41 55
41 56
41 65
41 67
41 68
41 76
41 77
41 84
41 92
41 94
41 100
41 106
41 107
41 112
41 115
41 119
41 124
41 126
41 129
41 131
41 137
41 143
41 150
41 153
41 159
41 161
41 162
41 163
41 165
41 171
41 174
41 180
41 181
41 182
41 184
41 187
41 189
41 190
41 191
41 195
41 201
41 202
41 204
41 206
41 209
41 214
41 215
42 44
42 46
42 53
42 55
42 56
42 65
42 67
42 68
42 76
42 77
42 84
42 92
42 94
42 100
42 106
42 107
42 112
42 115
42 119
42 124
42 126
42 129
42 131
42 137
42 143
42 150
42 153
42 159
42 161
42 162
42 163
42 165
42 171
42 174
42 180
42 181
42 182
42 184
42 187
42 189
42 190
42 195
42 201
42 202
42 204
42 206
42 209
42 214
42 215
43 110
43 132
44 46
44 53
44 55
44 56
44 65
44 67
44 68
44 76
44 77
44 84
44 92
44 94
44 100
44 106
44 107
44 112
44 115
44 119
44 124
44 126
44 129
44 131
44 137
44 143
44 150
44 153
44 159
44 161
44 162
44 163
44 165
44 171
44 174
44 180
44 181
44 182
44 184
44 187
44 189
44 190
44 195
44 201
44 202
44 204
44 206
44 209
44 214
44 215
45 116
45 117
45 135
45 148
45 167
46 53
46 55
46 56
46 65
46 67
46 68
46 76
46 77
46 84
46 92
46 94
46 100
46 106
46 107
46 112
46 115
46 119
46 124
46 126
46 129
46 131
46 137
46 143
46 150
46 153
46 159
46 161
46 162
46 163
46 165
46 171
46 174
46 180
46 181
46 182
46 184
46 187
46 189
46 190
46 191
46 195
46 201
46 202
46 204
46 206
46 209
46 214
46 215
47 48
47 51
47 52
47 54
47 59
47 62
47 66
47 72
47 74
47 75
47 81
47 88
47 90
47 93
47 95
47 96
47 99
47 103
47 104
47 130
47 133
47 140
47 141
47 144
47 151
47 156
47 157
47 160
47 168
47 169
47 177
47 179
47 185
47 186
47 193
47 198
47 203
48 49
48 51
48 52
48 54
48 59
48 61
48 62
48 66
48 72
48 74
48 75
48 81
48 88
48 90
48 93
48 95
48 96
48 99
48 103
48 104
48 130
48 133
48 140
48 141
48 142
48 144
48 151
48 156
48 157
48 160
48 168
48 169
48 177
48 179
48 185
48 186
48 193
48 196
48 197
48 198
48 203
49 51
49 52
49 59
49 61
49 62
49 66
49 72
49 74
49 75
49 81
49 88
49 93
49 96
49 99
49 103
49 104
49 133
49 140
49 141
49 142
49 144
49 156
49 179
49 185
49 193
49 197
49 198
49 203
51 52
51 54
51 59
51 61
51 62
51 66
51 72
51 74
51 75
51 81
51 88
51 90
51 93
51 95
51 96
51 99
51 103
51 104
51 130
51 133
51 140
51 141
51 142
51 144
51 151
51 156
51 157
51 160
51 168
51 169
51 177
51 179
51 185
51 186
51 193
51 196
51 197
51 198
51 203
52 54
52 59
52 62
52 66
52 72
52 74
52 75
52 81
52 88
52 90
52 93
52 95
52 96
52 99
52 103
52 104
52 130
52 133
52 140
52 141
52 142
52 144
52 151
52 156
52 157
52 160
52 168
52 169
52 177
52 179
52 185
52 186
52 193
52 196
52 197
52 198
52 203
53 55
53 56
53 65
53 67
53 68
53 76
53 77
53 84
53 92
53 94
53 100
53 106
53 107
53 112
53 115
53 119
53 124
53 126
53 129
53 131
53 137
53 143
53 150
53 153
53 159
53 161
53 162
53 163
53 165
53 171
53 174
53 180
53 181
53 182
53 184
53 187
53 189
53 190
53 191
53 195
53 201
53 202
53 204
53 206
53 209
53 214
53 215
54 59
54 62
54 66
54 72
54 74
54 75
54 81
54 88
54 90
54 93
54 95
54 96
54 99
54 103
54 104
54 130
54 133
54 140
54 141
54 142
54 144
54 151
54 156
54 157
54 160
54 168
54 169
54 177
54 179
54 185
54 186
54 193
54 196
54 197
54 198
54 203
55 56
55 65
55 67
55 68
55 76
55 77
55 84
55 92
55 94
55 100
55 106
55 107
55 112
55 115
55 119
55 124
55 126
55 129
55 131
55 137
55 143
55 150
55 153
55 159
55 161
55 162
55 163
55 165
55 171
55 174
55 180
55 181
55 182
55 184
55 187
55 189
55 190
55 195
55 201
55 202
55 204
55 206
55 209
55 214
55 215
56 65
56 67
56 68
56 76
56 77
56 84
56 92
56 94
56 100
56 106
56 107
56 112
56 115
56 119
56 124
56 126
56 129
56 131
56 137
56 143
56 150
56 153
56 159
56 161
56 162
56 163
56 165
56 171
56 174
56 180
56 181
56 182
56 184
56 187
56 189
56 190
56 191
56 195
56 201
56 202
56 204
56 206
56 209
56 214
56 215
57 70
57 80
57 87
57 123
57 146
57 178
57 192
58 118
58 205
59 61
59 62
59 66
59 72
59 74
59 75
59 81
59 88
59 90
59 93
59 95
59 96
59 99
59 103
59 104
59 130
59 133
59 140
59 141
59 142
59 144
59 151
59 156
59 168
59 177
59 179
59 185
59 186
59 193
59 197
59 198
59 203
61 62
61 66
61 72
61 74
61 75
61 81
61 88
61 90
61 93
61 95
61 99
61 103
61 104
61 130
61 133
61 140
61 141
61 142
61 144
61 156
61 179
61 185
61 193
61 197
61 198
61 203
62 66
62 72
62 74
62 75
62 81
62 88
62 90
62 93
62 95
62 96
62 99
62 103
62 104
62 130
62 133
62 140
62 141
62 142
62 144
62 151
62 156
62 157
62 160
62 168
62 169
62 177
62 179
62 185
62 186
62 193
62 196
62 197
62 198
62 203
63 117
63 135
63 145
63 167
63 188
64 147
64 211
65 67
65 68
65 76
65 77
65 84
65 92
65 94
65 100
65 106
65 107
65 112
65 115
65 119
65 124
65 129
65 131
65 137
65 143
65 153
65 159
65 161
65 162
65 163
65 165
65 171
65 174
65 180
65 181
65 182
65 184
65 187
65 189
65 190
65 195
65 201
65 202
65 204
65 206
65 209
65 214
65 215
66 72
66 74
66 75
66 81
66 88
66 90
66 93
66 95
66 96
66 99
66 103
66 104
66 130
66 133
66 140
66 141
66 142
66 144
66 151
66 156
66 160
66 168
66 169
66 177
66 179
66 185
66 186
66 193
66 197
66 198
66 203
67 68
67 76
67 77
67 84
67 92
67 94
67 100
67 106
67 107
67 112
67 115
67 119
67 124
67 126
67 129
67 131
67 137
67 143
67 150
67 153
67 159
67 161
67 162
67 163
67 165
67 171
67 174
67 180
67 181
67 182
67 184
67 187
67 189
67 190
67 191
67 195
67 201
67 202
67 204
67 206
67 209
67 214
67 215
68 76
68 77
68 84
68 92
68 94
68 100
68 106
68 107
68 112
68 115
68 119
68 124
68 126
68 129
68 131
68 137
68 143
68 150
68 153
68 159
68 161
68 162
68 163
68 165
68 171
68 174
68 180
68 181
68 182
68 184
68 187
68 189
68 190
68 191
68 195
68 201
68 202
68 204
68 206
68 209
68 214
68 215
70 80
70 87
70 123
70 146
70 155
70 178
70 192
72 74
72 75
72 81
72 88
72 90
72 93
72 95
72 96
72 99
72 103
72 104
72 130
72 133
72 140
72 141
72 142
72 144
72 151
72 156
72 157
72 160
72 168
72 169
72 177
72 179
72 185
72 186
72 193
72 196
72 197
72 198
72 203
73 138
74 75
74 81
74 88
74 90
74 93
74 95
74 96
74 99
74 103
74 104
74 130
74 133
74 140
74 141
74 142
74 144
74 151
74 156
74 157
74 160
74 168
74 169
74 177
74 179
74 185
74 186
74 193
74 196
74 197
74 198
74 203
75 81
75 88
75 90
75 93
75 95
75 96
75 99
75 103
75 104
75 130
75 133
75 140
75 141
75 142
75 144
75 151
75 156
75 160
75 168
75 177
75 179
75 185
75 186
75 193
75 197
75 198
75 203
76 77
76 84
76 92
76 94
76 100
76 106
76 107
76 112
76 115
76 119
76 124
76 126
76 129
76 131
76 137
76 143
76 150
76 153
76 159
76 161
76 162
76 163
76 165
76 171
76 174
76 180
76 181
76 182
76 184
76 187
76 189
76 190
76 191
76 195
76 201
76 202
76 204
76 206
76 209
76 214
76 215
77 84
77 92
77 94
77 100
77 106
77 107
77 112
77 115
77 119
77 124
77 126
77 129
77 131
77 137
77 143
77 150
77 153
77 159
77 161
77 162
77 163
77 165
77 171
77 174
77 180
77 181
77 182
77 184
77 187
77 189
77 190
77 191
77 195
77 201
77 202
77 204
77 206
77 209
77 214
77 215
79 86
79 91
79 111
79 117
79 172
79 216
80 87
80 123
80 146
80 155
80 178
80 192
81 88
81 90
81 93
81 95
81 96
81 99
81 103
81 104
81 130
81 133
81 140
81 141
81 142
81 144
81 151
81 156
81 157
81 160
81 168
81 169
81 177
81 179
81 185
81 186
81 193
81 196
81 197
81 198
81 203
82 120
82 212
84 92
84 94
84 100
84 106
84 107
84 112
84 115
84 119
84 124
84 126
84 129
84 131
84 137
84 143
84 150
84 153
84 159
84 161
84 162
84 163
84 165
84 171
84 174
84 180
84 181
84 182
84 184
84 187
84 189
84 190
84 191
84 195
84 201
84 202
84 204
84 206
84 209
84 214
84 215
86 111
87 123
87 146
87 155
87 178
87 192
88 90
88 93
88 95
88 96
88 99
88 103
88 104
88 130
88 133
88 140
88 141
88 142
88 144
88 151
88 156
88 157
88 160
88 168
88 169
88 177
88 179
88 185
88 186
88 193
88 196
88 197
88 198
88 203
89 145
90 93
90 95
90 96
90 99
90 103
90 104
90 130
90 133
90 140
90 141
90 142
90 144
90 151
90 156
90 157
90 160
90 168
90 169
90 177
90 179
90 185
90 186
90 193
90 196
90 197
90 198
90 203
91 111
91 172
91 216
92 94
92 100
92 106
92 107
92 112
92 115
92 119
92 124
92 126
92 129
92 131
92 137
92 143
92 150
92 153
92 159
92 161
92 162
92 163
92 165
92 171
92 174
92 180
92 181
92 182
92 184
92 187
92 189
92 190
92 191
92 195
92 201
92 202
92 204
92 206
92 209
92 214
92 215
93 95
93 96
93 99
93 103
93 104
93 130
93 133
93 140
93 141
93 142
93 144
93 151
93 156
93 160
93 168
93 169
93 177
93 179
93 185
93 186
93 193
93 197
93 198
93 203
94 100
94 106
94 107
94 112
94 115
94 119
94 124
94 126
94 129
94 131
94 137
94 143
94 150
94 153
94 159
94 161
94 162
94 163
94 165
94 171
94 174
94 180
94 181
94 182
94 184
94 187
94 189
94 190
94 195
94 201
94 202
94 204
94 206
94 209
94 214
94 215
95 96
95 99
95 103
95 104
95 130
95 133
95 140
95 141
95 142
95 144
95 151
95 156
95 157
95 160
95 168
95 169
95 177
95 179
95 185
95 186
95 193
95 196
95 197
95 198
95 203
96 99
96 103
96 104
96 130
96 133
96 140
96 141
96 142
96 144
96 151
96 156
96 157
96 160
96 168
96 169
96 177
96 179
96 185
96 186
96 193
96 196
96 197
96 198
96 203
97 138
97 200
99 103
99 104
99 130
99 133
99 140
99 141
99 142
99 144
99 151
99 156
99 157
99 160
99 168
99 169
99 177
99 179
99 185
99 186
99 193
99 196
99 197
99 198
99 203
100 106
100 107
100 112
100 115
100 119
100 124
100 126
100 129
100 131
100 137
100 150
100 153
100 159
100 161
100 162
100 163
100 165
100 171
100 174
100 180
100 181
100 182
100 184
100 187
100 189
100 190
100 195
100 201
100 202
100 204
100 206
100 209
100 214
100 215
102 173
102 207
103 104
103 130
103 133
103 140
103 141
103 142
103 144
103 151
103 156
103 160
103 168
103 169
103 177
103 179
103 185
103 186
103 193
103 197
103 198
103 203
104 130
104 133
104 140
104 141
104 142
104 144
104 151
104 156
104 157
104 160
104 168
104 169
104 177
104 179
104 185
104 186
104 193
104 196
104 197
104 198
104 203
106 107
106 112
106 115
106 119
106 124
106 126
106 129
106 131
106 137
106 143
106 150
106 153
106 159
106 161
106 162
106 163
106 165
106 171
106 174
106 180
106 181
106 182
106 184
106 187
106 189
106 190
106 191
106 195
106 201
106 202
106 204
106 206
106 209
106 214
106 215
107 112
107 115
107 119
107 124
107 126
107 129
107 131
107 137
107 143
107 150
107 153
107 159
107 161
107 162
107 163
107 165
107 171
107 174
107 180
107 181
107 182
107 184
107 187
107 189
107 190
107 195
107 201
107 202
107 204
107 206
107 209
107 214
107 215
108 166
110 132
111 117
111 172
111 216
112 115
112 119
112 124
112 126
112 129
112 131
112 137
112 143
112 150
112 153
112 159
112 161
112 162
112 163
112 165
112 171
112 174
112 180
112 181
112 182
112 184
112 187
112 189
112 190
112 191
112 195
112 201
112 202
112 204
112 206
112 209
112 214
112 215
114 152
115 119
115 124
115 126
115 129
115 131
115 137
115 143
115 150
115 153
115 159
115 161
115 162
115 163
115 165
115 171
115 174
115 180
115 181
115 182
115 184
115 187
115 189
115 190
115 191
115 195
115 201
115 202
115 204
115 206
115 209
115 214
115 215
116 117
116 135
116 145
116 148
116 167
117 135
117 145
117 148
117 167
117 188
118 205
119 124
119 126
119 129
119 131
119 137
119 143
119 150
119 153
119 159
119 161
119 162
119 163
119 165
119 171
119 174
119 180
119 181
119 182
119 184
119 187
119 189
119 190
119 191
119 195
119 201
119 202
119 204
119 206
119 209
119 214
119 215
122 145
123 146
123 155
123 178
123 192
124 126
124 129
124 131
124 137
124 143
124 150
124 153
124 159
124 161
124 162
124 163
124 165
124 171
124 174
124 180
124 181
124 182
124 184
124 187
124 189
124 190
124 191
124 195
124 201
124 202
124 204
124 206
124 209
124 214
124 215
125 128
126 129
126 131
126 137
126 143
126 150
126 153
126 159
126 161
126 162
126 163
126 165
126 171
126 174
126 180
126 182
126 184
126 187
126 189
126 190
126 191
126 195
126 201
126 202
126 204
126 206
126 209
126 214
126 215
128 147
128 183
129 131
129 137
129 143
129 150
129 153
129 159
129 161
129 162
129 163
129 165
129 171
129 174
129 180
129 181
129 182
129 184
129 187
129 189
129 190
129 191
129 195
129 201
129 202
129 204
129 206
129 209
129 214
129 215
130 133
130 140
130 141
130 142
130 144
130 151
130 156
130 157
130 160
130 168
130 169
130 177
130 179
130 185
130 186
130 193
130 197
130 198
130 203
131 137
131 143
131 150
131 153
131 159
131 161
131 162
131 163
131 165
131 171
131 174
131 180
131 181
131 182
131 184
131 187
131 189
131 190
131 191
131 195
131 201
131 202
131 204
131 206
131 209
131 214
131 215
133 140
133 141
133 142
133 144
133 151
133 156
133 160
133 168
133 177
133 179
133 185
133 186
133 193
133 197
133 198
133 203
135 148
135 167
135 188
137 143
137 150
137 153
137 159
137 161
137 162
137 163
137 165
137 171
137 174
137 180
137 181
137 182
137 184
137 187
137 189
137 190
137 191
137 195
137 201
137 202
137 204
137 206
137 209
137 214
137 215
138 200
139 149
140 141
140 142
140 144
140 151
140 156
140 160
140 168
140 177
140 179
140 185
140 186
140 193
140 197
140 198
140 203
141 142
141 144
141 151
141 156
141 157
141 160
141 168
141 169
141 177
141 179
141 185
141 186
141 193
141 196
141 197
141 198
141 203
142 144
142 151
142 156
142 160
142 177
142 179
142 185
142 186
142 193
142 197
142 198
142 203
143 150
143 153
143 159
143 161
143 162
143 163
143 165
143 171
143 174
143 180
143 181
143 182
143 184
143 187
143 189
143 190
143 195
143 201
143 202
143 204
143 206
143 209
143 214
143 215
144 151
144 156
144 160
144 168
144 169
144 177
144 179
144 185
144 186
144 193
144 197
144 198
144 203
145 188
146 155
146 178
146 192
147 211
148 167
150 153
150 159
150 161
150 162
150 163
150 165
150 171
150 174
150 180
150 181
150 182
150 184
150 187
150 189
150 190
150 195
150 201
150 202
150 204
150 206
150 209
150 214
150 215
151 156
151 157
151 160
151 168
151 169
151 177
151 179
151 185
151 186
151 193
151 196
151 197
151 198
151 203
153 159
153 161
153 162
153 163
153 165
153 171
153 174
153 180
153 181
153 182
153 184
153 187
153 189
153 190
153 195
153 201
153 202
153 204
153 206
153 209
153 214
153 215
155 178
155 192
156 157
156 160
156 168
156 169
156 177
156 179
156 185
156 186
156 193
156 196
156 197
156 198
156 203
157 160
157 168
157 169
157 177
157 179
157 185
157 186
157 193
157 196
157 198
159 161
159 162
159 163
159 165
159 171
159 174
159 180
159 181
159 182
159 184
159 187
159 189
159 190
159 191
159 195
159 201
159 202
159 204
159 206
159 209
159 214
159 215
160 168
160 169
160 177
160 179
160 185
160 186
160 193
160 196
160 197
160 198
160 203
161 162
161 163
161 165
161 171
161 174
161 180
161 181
161 182
161 184
161 187
161 189
161 190
161 191
161 195
161 201
161 202
161 204
161 206
161 209
161 214
161 215
162 163
162 165
162 171
162 174
162 180
162 181
162 182
162 184
162 187
162 189
162 190
162 191
162 195
162 201
162 202
162 204
162 206
162 209
162 214
162 215
163 165
163 171
163 174
163 180
163 181
163 182
163 184
163 187
163 189
163 190
163 195
163 201
163 202
163 204
163 206
163 209
163 214
163 215
165 171
165 174
165 180
165 181
165 182
165 184
165 187
165 189
165 190
165 195
165 201
165 202
165 204
165 206
165 209
165 214
165 215
168 169
168 177
168 179
168 185
168 186
168 193
168 198
168 203
169 177
169 179
169 185
169 186
169 193
169 198
169 203
171 174
171 180
171 181
171 182
171 184
171 187
171 189
171 190
171 191
171 195
171 201
171 202
171 204
171 206
171 209
171 214
171 215
172 216
173 207
174 180
174 181
174 182
174 184
174 187
174 189
174 190
174 195
174 201
174 202
174 204
174 206
174 209
174 214
174 215
177 179
177 185
177 186
177 193
177 196
177 197
177 198
177 203
178 192
179 185
179 186
179 193
179 196
179 197
179 198
179 203
180 181
180 182
180 184
180 187
180 189
180 190
180 191
180 195
180 201
180 202
180 204
180 206
180 209
180 214
180 215
181 182
181 184
181 187
181 189
181 190
181 195
181 201
181 202
181 204
181 206
181 209
181 214
181 215
182 184
182 187
182 189
182 190
182 191
182 195
182 201
182 202
182 204
182 206
182 209
182 214
182 215
184 187
184 189
184 190
184 191
184 195
184 201
184 202
184 204
184 206
184 209
184 214
184 215
185 186
185 193
185 196
185 197
185 198
185 203
186 193
186 197
186 198
186 203
187 189
187 190
187 191
187 195
187 201
187 202
187 204
187 206
187 209
187 214
187 215
189 190
189 191
189 195
189 201
189 202
189 204
189 206
189 209
189 214
189 215
190 195
190 201
190 202
190 204
190 206
190 209
190 214
190 215
191 195
191 201
191 202
191 204
191 206
191 209
191 214
193 196
193 197
193 198
193 203
195 201
195 202
195 204
195 206
195 209
195 214
195 215
196 198
197 198
197 203
198 203
201 202
201 204
201 206
201 209
201 214
201 215
202 204
202 206
202 209
202 214
202 215
204 206
204 209
204 214
204 215
206 209
206 214
206 215
209 214
209 215
214 215
